# Objective value = 14
WA1n 0
WA1p 0
WA2n 1
WA2p 0
WB1n 0
WB1p 0
WB2n 0
WB2p 1
WC1n 1
WC1p 0
WD1n 1
WD1p 0
WE1n 0
WE1p 1
WF1n 0
WF1p 3
WF2n 0
WF2p 1
WT1n 0
WT1p 2
5 7
a 0
b 0
c 0
d 1
e 0
f 0
g 1
h 1
i 1
j 1
